interdiction/MCDM/NO_CORR/GEN_FROM_60/13_ITEMS_1000_GEN/K5013W04.KNP.mps
NAME          BLANK   
ROWS
 N  OBJROW
 L  R0000000
COLUMNS
    C0000000  OBJROW     -447.         R0000000  299.        
    C0000001  OBJROW     -400.         R0000000  634.        
    C0000002  OBJROW     -18.          R0000000  761.        
    C0000003  OBJROW     -447.         R0000000  584.        
    C0000004  OBJROW     -906.         R0000000  272.        
    C0000005  OBJROW     -931.         R0000000  779.        
    C0000006  OBJROW     -60.          R0000000  336.        
    C0000007  OBJROW     -455.         R0000000  955.        
    C0000008  OBJROW     -170.         R0000000  136.        
    C0000009  OBJROW     -24.          R0000000  449.        
    C0000010  OBJROW     -186.         R0000000  209.        
    C0000011  OBJROW     -353.         R0000000  967.        
    C0000012  OBJROW     -433.         R0000000  660.        
RHS
    RHS       R0000000  15344.      
BOUNDS
 BV BOUND     C0000000  1.          
 BV BOUND     C0000001  1.          
 BV BOUND     C0000002  1.          
 BV BOUND     C0000003  1.          
 BV BOUND     C0000004  1.          
 BV BOUND     C0000005  1.          
 BV BOUND     C0000006  1.          
 BV BOUND     C0000007  1.          
 BV BOUND     C0000008  1.          
 BV BOUND     C0000009  1.          
 BV BOUND     C0000010  1.          
 BV BOUND     C0000011  1.          
 BV BOUND     C0000012  1.          
ENDATA
