data/MCDM/NO_CORR/GEN_FROM_60/13_ITEMS_1000_GEN/K5013W04.KNP.txt
N 13
M 14
LC 13
LC 14
LC 15
LC 16
LC 17
LC 18
LC 19
LC 20
LC 21
LC 22
LC 23
LC 24
LC 25
LR 1
LR 2
LR 3
LR 4
LR 5
LR 6
LR 7
LR 8
LR 9
LR 10
LR 11
LR 12
LR 13
LR 14
LO -447
LO -400
LO -18
LO -447
LO -906
LO -931
LO -60
LO -455
LO -170
LO -24
LO -186
LO -353
LO -433
OS 1
IC 553
IC 602
IC 371
IC 741
IC 142
IC 543
IC 998
IC 955
IC 143
IC 429
IC 955
IC 558
IC 107
IB 3549
